3 100 1751
6 8 6 6 5 2 9 10 9 11
3 3 4
2 8 8
2 6 5
8 1 8 7
0 35.0 35.0 0.0 0.0 0 230
2 41.0 49.0 10.0 10.0 0 204 15 0 1 0 1 0 0 1 0 0 0
3 35.0 17.0 10.0 7.0 0 202 9 0 0 1 0 0 0 0 0 0 0
4 55.0 45.0 10.0 13.0 0 197 6 0 0 0 0 0 1 0 0 0 0
5 55.0 20.0 10.0 19.0 139 169 85 0 0 0 0 0 0 0 1 0 1
6 15.0 30.0 10.0 26.0 0 199 78 0 0 0 0 0 0 0 0 0 1
7 25.0 30.0 10.0 3.0 0 208 90 0 0 0 0 0 1 0 0 0 0
8 20.0 50.0 10.0 5.0 0 198 43 0 0 0 0 0 1 0 0 0 0
9 10.0 43.0 10.0 9.0 85 115 58 1 0 0 0 0 1 0 0 0 0
10 55.0 60.0 10.0 16.0 87 117 66 0 1 0 0 0 0 0 0 0 0
11 30.0 60.0 10.0 16.0 0 194 3 0 0 0 1 1 0 0 0 0 0
12 20.0 65.0 10.0 12.0 57 87 20 0 0 0 0 0 0 1 0 1 0
13 50.0 35.0 10.0 19.0 0 205 84 0 0 0 0 1 0 0 0 1 0
14 30.0 25.0 10.0 23.0 149 179 78 1 0 0 0 0 0 0 1 0 1
15 15.0 10.0 10.0 20.0 0 187 87 0 0 0 1 0 1 0 0 0 0
16 30.0 5.0 10.0 8.0 51 81 44 0 0 0 0 0 1 0 0 0 0
17 10.0 20.0 10.0 19.0 0 190 45 0 0 1 1 0 0 0 0 1 1
18 5.0 30.0 10.0 2.0 0 189 31 0 0 0 0 1 1 0 1 0 1
19 20.0 40.0 10.0 12.0 0 204 39 0 0 1 0 0 1 0 0 1 0
20 15.0 60.0 10.0 17.0 0 187 34 0 0 1 0 0 0 1 1 0 0
21 45.0 65.0 10.0 9.0 0 188 77 0 0 0 0 0 1 0 0 0 0
22 45.0 20.0 10.0 11.0 0 201 63 0 0 0 0 1 1 0 0 0 0
23 45.0 10.0 10.0 18.0 0 193 18 0 1 0 0 0 0 1 0 0 0
24 55.0 5.0 10.0 29.0 58 88 4 0 0 0 1 0 0 0 0 0 0
25 65.0 35.0 10.0 3.0 0 190 81 0 0 0 0 0 1 0 0 0 0
26 65.0 20.0 10.0 6.0 156 186 98 1 0 0 0 0 1 0 0 0 0
27 45.0 30.0 10.0 17.0 0 208 20 0 1 0 0 0 0 0 0 1 0
28 35.0 40.0 10.0 16.0 0 215 46 0 1 0 1 0 0 1 1 0 0
29 41.0 37.0 10.0 16.0 0 213 34 0 0 0 0 0 0 0 1 0 1
30 64.0 42.0 10.0 9.0 0 190 79 0 0 0 1 1 0 1 0 0 1
31 40.0 60.0 10.0 21.0 0 194 81 0 0 0 0 1 0 0 1 1 0
32 31.0 52.0 10.0 27.0 0 202 51 0 1 0 0 0 0 0 0 0 1
33 35.0 69.0 10.0 23.0 0 186 47 0 1 0 0 0 0 0 0 0 1
34 53.0 52.0 10.0 11.0 0 195 53 0 1 1 0 0 0 0 0 0 1
35 65.0 55.0 10.0 14.0 0 183 85 0 1 0 0 1 0 0 0 0 0
36 63.0 65.0 10.0 8.0 0 178 19 0 0 1 0 1 0 0 0 0 1
37 2.0 60.0 10.0 5.0 0 178 48 0 0 1 0 0 0 1 0 0 0
38 20.0 20.0 10.0 8.0 0 198 81 0 0 0 0 0 1 0 0 0 0
39 5.0 5.0 10.0 16.0 73 103 86 0 0 1 0 0 0 1 0 0 0
40 60.0 12.0 10.0 31.0 0 186 32 1 1 0 0 0 0 1 0 0 0
41 40.0 25.0 10.0 9.0 0 208 37 0 0 0 0 1 0 0 0 0 1
42 42.0 7.0 10.0 5.0 0 191 41 0 0 1 0 0 0 1 0 0 0
43 24.0 12.0 10.0 5.0 0 194 6 0 0 0 0 0 1 0 0 1 1
44 23.0 3.0 10.0 7.0 0 185 82 0 0 1 0 1 0 1 0 0 1
45 11.0 14.0 10.0 18.0 59 89 54 0 0 0 0 0 0 0 0 1 0
46 6.0 38.0 10.0 16.0 0 190 59 1 0 0 0 0 0 0 0 1 0
47 2.0 48.0 10.0 1.0 0 184 66 0 0 0 1 0 0 1 1 0 0
48 8.0 56.0 10.0 27.0 0 185 45 0 0 0 0 0 1 0 0 0 0
49 13.0 52.0 10.0 36.0 0 192 77 1 0 0 0 0 0 0 0 0 0
50 6.0 68.0 10.0 30.0 0 176 12 0 0 0 0 0 0 0 1 0 0
51 47.0 47.0 10.0 13.0 0 203 76 0 1 0 0 0 0 0 0 0 0
52 49.0 58.0 10.0 10.0 0 193 37 1 0 0 0 1 0 0 0 0 0
53 27.0 43.0 10.0 9.0 0 208 71 0 0 0 0 0 1 0 0 1 0
54 37.0 31.0 10.0 14.0 85 115 29 0 1 1 0 0 0 0 1 1 0
55 57.0 29.0 10.0 18.0 0 197 41 0 0 0 0 0 0 0 1 0 0
56 63.0 23.0 10.0 2.0 126 156 18 1 1 1 0 0 0 0 1 0 1
57 53.0 12.0 10.0 6.0 0 190 20 0 0 1 0 1 1 0 0 0 0
58 32.0 12.0 10.0 7.0 0 196 44 0 0 0 1 0 0 0 0 0 0
59 36.0 26.0 10.0 18.0 180 210 2 0 0 0 0 0 1 0 0 0 0
60 21.0 24.0 10.0 28.0 0 202 60 0 0 0 0 0 0 1 0 0 0
61 17.0 34.0 10.0 3.0 0 201 7 1 0 1 0 0 0 0 0 1 0
62 12.0 24.0 10.0 13.0 0 194 76 0 0 0 1 0 1 1 0 0 0
63 24.0 58.0 10.0 19.0 48 78 62 1 1 0 0 0 1 0 0 0 0
64 27.0 69.0 10.0 10.0 0 185 18 0 0 0 0 0 1 0 0 0 0
65 15.0 77.0 10.0 9.0 0 173 93 0 0 1 0 0 0 1 0 0 0
66 62.0 77.0 10.0 20.0 0 170 46 1 0 1 0 0 0 0 0 0 1
67 49.0 73.0 10.0 25.0 0 179 98 0 0 0 0 0 1 0 0 0 0
68 67.0 5.0 10.0 25.0 73 103 54 0 0 0 0 0 0 0 1 0 0
69 56.0 39.0 10.0 36.0 0 198 98 0 1 1 1 0 0 0 1 1 0
70 37.0 47.0 10.0 6.0 40 70 20 1 1 0 0 0 0 0 0 0 1
71 37.0 56.0 10.0 5.0 0 198 42 0 0 0 0 0 1 1 0 0 0
72 57.0 68.0 10.0 15.0 0 180 44 1 0 0 0 1 0 0 0 0 0
73 47.0 16.0 10.0 25.0 0 197 89 0 0 0 0 1 0 0 0 0 1
74 44.0 17.0 10.0 9.0 0 199 0 1 0 0 0 0 0 0 0 0 0
75 46.0 13.0 10.0 8.0 139 169 24 0 0 0 0 0 1 0 0 0 0
76 49.0 11.0 10.0 18.0 0 192 32 1 0 1 0 0 0 0 0 1 0
77 49.0 42.0 10.0 13.0 63 93 82 0 0 0 1 0 1 1 1 0 0
78 53.0 43.0 10.0 14.0 169 199 2 1 0 0 1 1 0 1 1 0 0
79 61.0 52.0 10.0 3.0 0 188 65 0 1 0 0 1 0 0 0 1 0
80 57.0 48.0 10.0 23.0 82 112 67 0 0 0 0 0 1 0 0 0 0
81 56.0 37.0 10.0 6.0 0 198 71 0 0 0 1 0 0 0 0 0 1
82 55.0 54.0 10.0 26.0 0 192 43 0 0 0 0 0 1 0 0 0 0
83 15.0 47.0 10.0 16.0 0 196 79 0 0 0 0 0 0 1 0 0 1
84 14.0 37.0 10.0 11.0 0 198 50 0 1 0 0 0 1 0 0 0 1
85 11.0 31.0 10.0 7.0 91 121 58 0 0 1 0 1 0 0 0 0 0
86 16.0 22.0 10.0 41.0 0 196 90 0 0 1 0 0 0 1 0 1 0
87 4.0 18.0 10.0 35.0 0 184 22 0 1 0 0 0 1 1 0 0 1
88 28.0 18.0 10.0 26.0 83 113 93 0 0 1 1 0 0 0 0 0 0
89 26.0 52.0 10.0 9.0 0 200 43 0 0 0 0 0 1 0 0 0 0
90 26.0 35.0 10.0 15.0 0 211 13 0 0 0 0 0 0 0 0 0 1
91 31.0 67.0 10.0 3.0 0 187 60 0 0 0 0 0 1 0 0 0 0
92 15.0 19.0 10.0 1.0 0 194 11 0 0 0 0 0 1 0 0 0 0
93 22.0 22.0 10.0 2.0 18 48 53 0 0 0 0 0 0 0 0 0 1
94 18.0 24.0 10.0 22.0 0 199 53 0 0 0 1 0 0 0 0 0 0
95 26.0 27.0 10.0 27.0 0 207 70 1 1 1 0 0 0 1 0 1 0
96 25.0 24.0 10.0 20.0 0 205 75 1 0 0 0 0 0 1 0 0 0
97 22.0 27.0 10.0 11.0 0 204 92 0 0 0 0 1 0 1 1 1 0
98 25.0 21.0 10.0 12.0 0 202 11 0 1 1 0 0 0 0 0 0 0
99 19.0 21.0 10.0 10.0 0 198 44 0 0 0 0 0 1 0 0 0 0
100 20.0 26.0 10.0 9.0 73 103 56 0 1 0 0 1 0 0 0 0 0
101 18.0 18.0 10.0 17.0 165 195 39 0 0 1 0 0 1 1 0 0 0